(set-logic QF_NRA)
(set-info :source |Benchmarks generated from hycomp (https://es-static.fbk.eu/tools/hycomp/). BMC instances of non-linear hybrid automata taken from: Alessandro Cimatti, Sergio Mover, Stefano Tonetta, A quantifier-free SMT encoding of non-linear hybrid automata, FMCAD 2012 and Alessandro Cimatti, Sergio Mover, Stefano Tonetta, Quantier-free encoding of invariants for Hybrid Systems, Formal Methods in System Design. This instance solves a BMC problem of depth 4 and uses the encoding obtained with quantifier elimination using qepcad encoding. Contacts: Sergio Mover (mover@fbk.eu), Stefano Tonetta (tonettas@fbk.eu), Alessandro Cimatti (cimatti@fbk.eu).|)
(set-info :smt-lib-version 2.0)
(set-info :category "industrial")
(set-info :status unsat)
;; MathSAT API call trace
;; generated on Mon Mar 19 10:48:31 2012
(declare-fun b.event_is_timed__AT0 () Bool)
(declare-fun b.time__AT0 () Real)
(declare-fun b.EVENT.1__AT1 () Bool)
(declare-fun b.counter.1__AT2 () Bool)
(declare-fun b.delta__AT0 () Real)
(declare-fun b.y__AT3 () Real)
(declare-fun b.counter.0__AT3 () Bool)
(declare-fun b.counter.1__AT3 () Bool)
(declare-fun b.x__AT3 () Real)
(declare-fun b.counter.2__AT3 () Bool)
(declare-fun b.y__AT0 () Real)
(declare-fun b.speed_y__AT2 () Real)
(declare-fun b.EVENT.1__AT3 () Bool)
(declare-fun b.counter.3__AT3 () Bool)
(declare-fun b.counter.0__AT0 () Bool)
(declare-fun b.event_is_timed__AT4 () Bool)
(declare-fun b.EVENT.1__AT0 () Bool)
(declare-fun b.bool_atom__AT3 () Bool)
(declare-fun b.EVENT.0__AT0 () Bool)
(declare-fun b.counter.3__AT0 () Bool)
(declare-fun b.counter.1__AT0 () Bool)
(declare-fun b.bool_atom__AT1 () Bool)
(declare-fun b.speed_y__AT3 () Real)
(declare-fun b.y__AT4 () Real)
(declare-fun b.time__AT4 () Real)
(declare-fun b.y__AT2 () Real)
(declare-fun b.counter.0__AT4 () Bool)
(declare-fun b.delta__AT4 () Real)
(declare-fun b.counter.1__AT4 () Bool)
(declare-fun b.g__AT0 () Real)
(declare-fun b.event_is_timed__AT1 () Bool)
(declare-fun b.x__AT4 () Real)
(declare-fun b.speed_y__AT0 () Real)
(declare-fun b.EVENT.0__AT4 () Bool)
(declare-fun b.counter.2__AT4 () Bool)
(declare-fun b.event_is_timed__AT2 () Bool)
(declare-fun b.EVENT.1__AT4 () Bool)
(declare-fun b.y__AT1 () Real)
(declare-fun b.counter.3__AT4 () Bool)
(declare-fun b.counter.2__AT0 () Bool)
(declare-fun b.bool_atom__AT4 () Bool)
(declare-fun b.counter.0__AT1 () Bool)
(declare-fun b.counter.1__AT1 () Bool)
(declare-fun b.counter.2__AT2 () Bool)
(declare-fun b.speed_y__AT4 () Real)
(declare-fun b.counter.2__AT1 () Bool)
(declare-fun b.time__AT2 () Real)
(declare-fun b.counter.3__AT2 () Bool)
(declare-fun b.time__AT3 () Real)
(declare-fun b.counter.3__AT1 () Bool)
(declare-fun b.x__AT1 () Real)
(declare-fun b.delta__AT2 () Real)
(declare-fun b.bool_atom__AT0 () Bool)
(declare-fun b.bool_atom__AT2 () Bool)
(declare-fun b.delta__AT3 () Real)
(declare-fun b.x__AT0 () Real)
(declare-fun b.EVENT.0__AT2 () Bool)
(declare-fun b.EVENT.0__AT3 () Bool)
(declare-fun b.EVENT.1__AT2 () Bool)
(declare-fun b.delta__AT1 () Real)
(declare-fun b.speed_y__AT1 () Real)
(declare-fun b.x__AT2 () Real)
(declare-fun b.event_is_timed__AT3 () Bool)
(declare-fun b.time__AT1 () Real)
(declare-fun b.EVENT.0__AT1 () Bool)
(declare-fun b.counter.0__AT2 () Bool)
(assert (let ((.def_808 (* 5.0 b.delta__AT4)))
(let ((.def_809 (* b.delta__AT4 .def_808)))
(let ((.def_810 (* (- 1.0) .def_809)))
(let ((.def_806 (* b.speed_y__AT4 b.delta__AT4)))
(let ((.def_813 (+ .def_806 .def_810)))
(let ((.def_803 (* b.x__AT4 b.x__AT4)))
(let ((.def_814 (+ .def_803 .def_813)))
(let ((.def_815 (+ b.y__AT4 .def_814)))
(let ((.def_816 (<= 0.0 .def_815)))
(let ((.def_804 (+ b.y__AT4 .def_803)))
(let ((.def_805 (<= 0.0 .def_804)))
(let ((.def_817 (and .def_805 .def_816)))
(let ((.def_801 (<= 0.0 b.delta__AT4)))
(let ((.def_802 (not .def_801)))
(let ((.def_818 (or .def_802 .def_817)))
(let ((.def_784 (not b.EVENT.0__AT4)))
(let ((.def_782 (not b.EVENT.1__AT4)))
(let ((.def_798 (and .def_782 .def_784)))
(let ((.def_799 (not .def_798)))
(let ((.def_819 (or .def_799 .def_818)))
(let ((.def_526 (not b.counter.0__AT3)))
(let ((.def_793 (or b.counter.1__AT3 .def_526)))
(let ((.def_521 (not b.counter.2__AT3)))
(let ((.def_794 (or .def_521 .def_793)))
(let ((.def_795 (or b.counter.3__AT3 .def_794)))
(let ((.def_787 (* (- 1.0) b.x__AT4)))
(let ((.def_788 (* b.x__AT4 .def_787)))
(let ((.def_789 (<= .def_788 b.y__AT4)))
(let ((.def_58 (<= b.g__AT0 10.0 )))
(let ((.def_57 (<= 8.0 b.g__AT0)))
(let ((.def_59 (and .def_57 .def_58)))
(let ((.def_790 (and .def_59 .def_789)))
(let ((.def_785 (or .def_782 .def_784)))
(let ((.def_695 (not b.counter.1__AT4)))
(let ((.def_4 (not b.counter.0__AT4)))
(let ((.def_775 (or .def_4 .def_695)))
(let ((.def_779 (or b.counter.3__AT4 .def_775)))
(let ((.def_776 (or b.counter.2__AT4 .def_775)))
(let ((.def_8 (not b.counter.2__AT4)))
(let ((.def_774 (or .def_4 .def_8)))
(let ((.def_777 (and .def_774 .def_776)))
(let ((.def_712 (not b.counter.3__AT4)))
(let ((.def_778 (or .def_712 .def_777)))
(let ((.def_780 (and .def_778 .def_779)))
(let ((.def_786 (and .def_780 .def_785)))
(let ((.def_791 (and .def_786 .def_790)))
(let ((.def_624 (<= 0.0 b.delta__AT3)))
(let ((.def_607 (not b.EVENT.0__AT3)))
(let ((.def_605 (not b.EVENT.1__AT3)))
(let ((.def_621 (and .def_605 .def_607)))
(let ((.def_622 (not .def_621)))
(let ((.def_770 (or .def_622 .def_624)))
(let ((.def_771 (or b.EVENT.1__AT3 .def_770)))
(let ((.def_679 (= b.bool_atom__AT3 b.bool_atom__AT4)))
(let ((.def_675 (= b.counter.0__AT4 b.counter.0__AT3)))
(let ((.def_673 (= b.counter.1__AT4 b.counter.1__AT3)))
(let ((.def_671 (= b.counter.2__AT4 b.counter.2__AT3)))
(let ((.def_670 (= b.counter.3__AT4 b.counter.3__AT3)))
(let ((.def_672 (and .def_670 .def_671)))
(let ((.def_674 (and .def_672 .def_673)))
(let ((.def_676 (and .def_674 .def_675)))
(let ((.def_766 (and .def_676 .def_679)))
(let ((.def_767 (or .def_622 .def_766)))
(let ((.def_768 (or b.EVENT.1__AT3 .def_767)))
(let ((.def_197 (* (- 1.0) b.g__AT0)))
(let ((.def_755 (* .def_197 b.delta__AT3)))
(let ((.def_756 (* (- 1.0) b.speed_y__AT4)))
(let ((.def_759 (+ .def_756 .def_755)))
(let ((.def_760 (+ b.speed_y__AT3 .def_759)))
(let ((.def_761 (= .def_760 0.0 )))
(let ((.def_744 (* b.delta__AT3 b.delta__AT3)))
(let ((.def_200 (* (/ 1 2) .def_197)))
(let ((.def_745 (* .def_200 .def_744)))
(let ((.def_746 (* (- 1.0) b.y__AT4)))
(let ((.def_750 (+ .def_746 .def_745)))
(let ((.def_629 (* b.speed_y__AT3 b.delta__AT3)))
(let ((.def_751 (+ .def_629 .def_750)))
(let ((.def_752 (+ b.y__AT3 .def_751)))
(let ((.def_753 (= .def_752 0.0 )))
(let ((.def_662 (= b.x__AT3 b.x__AT4)))
(let ((.def_754 (and .def_662 .def_753)))
(let ((.def_762 (and .def_754 .def_761)))
(let ((.def_763 (or .def_622 .def_762)))
(let ((.def_665 (= b.y__AT3 b.y__AT4)))
(let ((.def_739 (and .def_662 .def_665)))
(let ((.def_668 (= b.speed_y__AT3 b.speed_y__AT4)))
(let ((.def_740 (and .def_668 .def_739)))
(let ((.def_736 (= b.delta__AT3 0.0 )))
(let ((.def_737 (and .def_621 .def_736)))
(let ((.def_738 (not .def_737)))
(let ((.def_741 (or .def_738 .def_740)))
(let ((.def_742 (or b.EVENT.1__AT3 .def_741)))
(let ((.def_729 (and .def_668 .def_676)))
(let ((.def_730 (or b.bool_atom__AT3 .def_729)))
(let ((.def_704 (or .def_4 b.counter.0__AT3)))
(let ((.def_703 (or b.counter.0__AT4 .def_526)))
(let ((.def_705 (and .def_703 .def_704)))
(let ((.def_706 (and .def_695 .def_705)))
(let ((.def_707 (or b.counter.1__AT3 .def_706)))
(let ((.def_516 (not b.counter.1__AT3)))
(let ((.def_702 (or b.counter.1__AT4 .def_516)))
(let ((.def_708 (and .def_702 .def_707)))
(let ((.def_720 (and .def_8 .def_708)))
(let ((.def_721 (or b.counter.2__AT3 .def_720)))
(let ((.def_715 (and .def_526 .def_695)))
(let ((.def_716 (or b.counter.1__AT3 .def_715)))
(let ((.def_717 (and .def_702 .def_716)))
(let ((.def_718 (and b.counter.2__AT4 .def_717)))
(let ((.def_719 (or .def_521 .def_718)))
(let ((.def_722 (and .def_719 .def_721)))
(let ((.def_723 (and b.counter.3__AT4 .def_722)))
(let ((.def_724 (or b.counter.3__AT3 .def_723)))
(let ((.def_709 (and b.counter.2__AT4 .def_708)))
(let ((.def_710 (or b.counter.2__AT3 .def_709)))
(let ((.def_698 (or b.counter.1__AT4 b.counter.1__AT3)))
(let ((.def_696 (and b.counter.0__AT4 .def_695)))
(let ((.def_697 (or .def_516 .def_696)))
(let ((.def_699 (and .def_697 .def_698)))
(let ((.def_700 (and .def_8 .def_699)))
(let ((.def_701 (or .def_521 .def_700)))
(let ((.def_711 (and .def_701 .def_710)))
(let ((.def_713 (and .def_711 .def_712)))
(let ((.def_535 (not b.counter.3__AT3)))
(let ((.def_714 (or .def_535 .def_713)))
(let ((.def_725 (and .def_714 .def_724)))
(let ((.def_692 (* b.speed_y__AT4 b.speed_y__AT4)))
(let ((.def_513 (* b.speed_y__AT3 b.speed_y__AT3)))
(let ((.def_693 (= .def_513 .def_692)))
(let ((.def_690 (+ b.speed_y__AT3 b.speed_y__AT4)))
(let ((.def_691 (= .def_690 0.0 )))
(let ((.def_694 (and .def_691 .def_693)))
(let ((.def_726 (and .def_694 .def_725)))
(let ((.def_689 (not b.bool_atom__AT3)))
(let ((.def_727 (or .def_689 .def_726)))
(let ((.def_685 (<= 0.0 b.speed_y__AT3)))
(let ((.def_686 (not .def_685)))
(let ((.def_610 (* (- 1.0) b.x__AT3)))
(let ((.def_611 (* b.x__AT3 .def_610)))
(let ((.def_684 (= b.y__AT3 .def_611)))
(let ((.def_687 (and .def_684 .def_686)))
(let ((.def_688 (= b.bool_atom__AT3 .def_687)))
(let ((.def_728 (and .def_688 .def_727)))
(let ((.def_731 (and .def_728 .def_730)))
(let ((.def_732 (and .def_662 .def_731)))
(let ((.def_733 (and .def_665 .def_732)))
(let ((.def_734 (or .def_621 .def_733)))
(let ((.def_735 (or b.EVENT.1__AT3 .def_734)))
(let ((.def_743 (and .def_735 .def_742)))
(let ((.def_764 (and .def_743 .def_763)))
(let ((.def_649 (= b.time__AT3 b.time__AT4)))
(let ((.def_663 (and .def_649 .def_662)))
(let ((.def_666 (and .def_663 .def_665)))
(let ((.def_669 (and .def_666 .def_668)))
(let ((.def_677 (and .def_669 .def_676)))
(let ((.def_680 (and .def_677 .def_679)))
(let ((.def_681 (or .def_605 .def_680)))
(let ((.def_652 (* (- 1.0) b.time__AT4)))
(let ((.def_655 (+ b.delta__AT3 .def_652)))
(let ((.def_656 (+ b.time__AT3 .def_655)))
(let ((.def_657 (= .def_656 0.0 )))
(let ((.def_658 (or .def_622 .def_657)))
(let ((.def_659 (or b.EVENT.1__AT3 .def_658)))
(let ((.def_650 (or .def_621 .def_649)))
(let ((.def_651 (or b.EVENT.1__AT3 .def_650)))
(let ((.def_660 (and .def_651 .def_659)))
(let ((.def_682 (and .def_660 .def_681)))
(let ((.def_646 (= .def_622 b.event_is_timed__AT4)))
(let ((.def_644 (= b.event_is_timed__AT3 .def_621)))
(let ((.def_647 (and .def_644 .def_646)))
(let ((.def_683 (and .def_647 .def_682)))
(let ((.def_765 (and .def_683 .def_764)))
(let ((.def_769 (and .def_765 .def_768)))
(let ((.def_772 (and .def_769 .def_771)))
(let ((.def_773 (and .def_605 .def_772)))
(let ((.def_792 (and .def_773 .def_791)))
(let ((.def_796 (and .def_792 .def_795)))
(let ((.def_631 (* 5.0 b.delta__AT3)))
(let ((.def_632 (* b.delta__AT3 .def_631)))
(let ((.def_633 (* (- 1.0) .def_632)))
(let ((.def_636 (+ .def_629 .def_633)))
(let ((.def_626 (* b.x__AT3 b.x__AT3)))
(let ((.def_637 (+ .def_626 .def_636)))
(let ((.def_638 (+ b.y__AT3 .def_637)))
(let ((.def_639 (<= 0.0 .def_638)))
(let ((.def_627 (+ b.y__AT3 .def_626)))
(let ((.def_628 (<= 0.0 .def_627)))
(let ((.def_640 (and .def_628 .def_639)))
(let ((.def_625 (not .def_624)))
(let ((.def_641 (or .def_625 .def_640)))
(let ((.def_642 (or .def_622 .def_641)))
(let ((.def_343 (not b.counter.0__AT2)))
(let ((.def_616 (or b.counter.1__AT2 .def_343)))
(let ((.def_338 (not b.counter.2__AT2)))
(let ((.def_617 (or .def_338 .def_616)))
(let ((.def_618 (or b.counter.3__AT2 .def_617)))
(let ((.def_612 (<= .def_611 b.y__AT3)))
(let ((.def_613 (and .def_59 .def_612)))
(let ((.def_608 (or .def_605 .def_607)))
(let ((.def_598 (or .def_516 .def_526)))
(let ((.def_602 (or b.counter.3__AT3 .def_598)))
(let ((.def_599 (or b.counter.2__AT3 .def_598)))
(let ((.def_597 (or .def_521 .def_526)))
(let ((.def_600 (and .def_597 .def_599)))
(let ((.def_601 (or .def_535 .def_600)))
(let ((.def_603 (and .def_601 .def_602)))
(let ((.def_609 (and .def_603 .def_608)))
(let ((.def_614 (and .def_609 .def_613)))
(let ((.def_441 (<= 0.0 b.delta__AT2)))
(let ((.def_424 (not b.EVENT.0__AT2)))
(let ((.def_422 (not b.EVENT.1__AT2)))
(let ((.def_438 (and .def_422 .def_424)))
(let ((.def_439 (not .def_438)))
(let ((.def_593 (or .def_439 .def_441)))
(let ((.def_594 (or b.EVENT.1__AT2 .def_593)))
(let ((.def_500 (= b.bool_atom__AT2 b.bool_atom__AT3)))
(let ((.def_496 (= b.counter.0__AT2 b.counter.0__AT3)))
(let ((.def_493 (= b.counter.1__AT2 b.counter.1__AT3)))
(let ((.def_490 (= b.counter.2__AT2 b.counter.2__AT3)))
(let ((.def_488 (= b.counter.3__AT2 b.counter.3__AT3)))
(let ((.def_491 (and .def_488 .def_490)))
(let ((.def_494 (and .def_491 .def_493)))
(let ((.def_497 (and .def_494 .def_496)))
(let ((.def_589 (and .def_497 .def_500)))
(let ((.def_590 (or .def_439 .def_589)))
(let ((.def_591 (or b.EVENT.1__AT2 .def_590)))
(let ((.def_578 (* .def_197 b.delta__AT2)))
(let ((.def_579 (* (- 1.0) b.speed_y__AT3)))
(let ((.def_582 (+ .def_579 .def_578)))
(let ((.def_583 (+ b.speed_y__AT2 .def_582)))
(let ((.def_584 (= .def_583 0.0 )))
(let ((.def_567 (* b.delta__AT2 b.delta__AT2)))
(let ((.def_568 (* .def_200 .def_567)))
(let ((.def_569 (* (- 1.0) b.y__AT3)))
(let ((.def_573 (+ .def_569 .def_568)))
(let ((.def_446 (* b.speed_y__AT2 b.delta__AT2)))
(let ((.def_574 (+ .def_446 .def_573)))
(let ((.def_575 (+ b.y__AT2 .def_574)))
(let ((.def_576 (= .def_575 0.0 )))
(let ((.def_479 (= b.x__AT2 b.x__AT3)))
(let ((.def_577 (and .def_479 .def_576)))
(let ((.def_585 (and .def_577 .def_584)))
(let ((.def_586 (or .def_439 .def_585)))
(let ((.def_482 (= b.y__AT2 b.y__AT3)))
(let ((.def_562 (and .def_479 .def_482)))
(let ((.def_485 (= b.speed_y__AT2 b.speed_y__AT3)))
(let ((.def_563 (and .def_485 .def_562)))
(let ((.def_559 (= b.delta__AT2 0.0 )))
(let ((.def_560 (and .def_438 .def_559)))
(let ((.def_561 (not .def_560)))
(let ((.def_564 (or .def_561 .def_563)))
(let ((.def_565 (or b.EVENT.1__AT2 .def_564)))
(let ((.def_552 (and .def_485 .def_497)))
(let ((.def_553 (or b.bool_atom__AT2 .def_552)))
(let ((.def_527 (or b.counter.0__AT2 .def_526)))
(let ((.def_525 (or .def_343 b.counter.0__AT3)))
(let ((.def_528 (and .def_525 .def_527)))
(let ((.def_529 (and .def_516 .def_528)))
(let ((.def_530 (or b.counter.1__AT2 .def_529)))
(let ((.def_333 (not b.counter.1__AT2)))
(let ((.def_524 (or .def_333 b.counter.1__AT3)))
(let ((.def_531 (and .def_524 .def_530)))
(let ((.def_543 (and .def_521 .def_531)))
(let ((.def_544 (or b.counter.2__AT2 .def_543)))
(let ((.def_538 (and .def_343 .def_516)))
(let ((.def_539 (or b.counter.1__AT2 .def_538)))
(let ((.def_540 (and .def_524 .def_539)))
(let ((.def_541 (and b.counter.2__AT3 .def_540)))
(let ((.def_542 (or .def_338 .def_541)))
(let ((.def_545 (and .def_542 .def_544)))
(let ((.def_546 (and b.counter.3__AT3 .def_545)))
(let ((.def_547 (or b.counter.3__AT2 .def_546)))
(let ((.def_532 (and b.counter.2__AT3 .def_531)))
(let ((.def_533 (or b.counter.2__AT2 .def_532)))
(let ((.def_519 (or b.counter.1__AT2 b.counter.1__AT3)))
(let ((.def_517 (and b.counter.0__AT3 .def_516)))
(let ((.def_518 (or .def_333 .def_517)))
(let ((.def_520 (and .def_518 .def_519)))
(let ((.def_522 (and .def_520 .def_521)))
(let ((.def_523 (or .def_338 .def_522)))
(let ((.def_534 (and .def_523 .def_533)))
(let ((.def_536 (and .def_534 .def_535)))
(let ((.def_352 (not b.counter.3__AT2)))
(let ((.def_537 (or .def_352 .def_536)))
(let ((.def_548 (and .def_537 .def_547)))
(let ((.def_330 (* b.speed_y__AT2 b.speed_y__AT2)))
(let ((.def_514 (= .def_330 .def_513)))
(let ((.def_511 (+ b.speed_y__AT2 b.speed_y__AT3)))
(let ((.def_512 (= .def_511 0.0 )))
(let ((.def_515 (and .def_512 .def_514)))
(let ((.def_549 (and .def_515 .def_548)))
(let ((.def_510 (not b.bool_atom__AT2)))
(let ((.def_550 (or .def_510 .def_549)))
(let ((.def_506 (<= 0.0 b.speed_y__AT2)))
(let ((.def_507 (not .def_506)))
(let ((.def_427 (* (- 1.0) b.x__AT2)))
(let ((.def_428 (* b.x__AT2 .def_427)))
(let ((.def_505 (= b.y__AT2 .def_428)))
(let ((.def_508 (and .def_505 .def_507)))
(let ((.def_509 (= b.bool_atom__AT2 .def_508)))
(let ((.def_551 (and .def_509 .def_550)))
(let ((.def_554 (and .def_551 .def_553)))
(let ((.def_555 (and .def_479 .def_554)))
(let ((.def_556 (and .def_482 .def_555)))
(let ((.def_557 (or .def_438 .def_556)))
(let ((.def_558 (or b.EVENT.1__AT2 .def_557)))
(let ((.def_566 (and .def_558 .def_565)))
(let ((.def_587 (and .def_566 .def_586)))
(let ((.def_466 (= b.time__AT2 b.time__AT3)))
(let ((.def_480 (and .def_466 .def_479)))
(let ((.def_483 (and .def_480 .def_482)))
(let ((.def_486 (and .def_483 .def_485)))
(let ((.def_498 (and .def_486 .def_497)))
(let ((.def_501 (and .def_498 .def_500)))
(let ((.def_502 (or .def_422 .def_501)))
(let ((.def_469 (* (- 1.0) b.time__AT3)))
(let ((.def_472 (+ b.delta__AT2 .def_469)))
(let ((.def_473 (+ b.time__AT2 .def_472)))
(let ((.def_474 (= .def_473 0.0 )))
(let ((.def_475 (or .def_439 .def_474)))
(let ((.def_476 (or b.EVENT.1__AT2 .def_475)))
(let ((.def_467 (or .def_438 .def_466)))
(let ((.def_468 (or b.EVENT.1__AT2 .def_467)))
(let ((.def_477 (and .def_468 .def_476)))
(let ((.def_503 (and .def_477 .def_502)))
(let ((.def_463 (= .def_439 b.event_is_timed__AT3)))
(let ((.def_461 (= b.event_is_timed__AT2 .def_438)))
(let ((.def_464 (and .def_461 .def_463)))
(let ((.def_504 (and .def_464 .def_503)))
(let ((.def_588 (and .def_504 .def_587)))
(let ((.def_592 (and .def_588 .def_591)))
(let ((.def_595 (and .def_592 .def_594)))
(let ((.def_596 (and .def_422 .def_595)))
(let ((.def_615 (and .def_596 .def_614)))
(let ((.def_619 (and .def_615 .def_618)))
(let ((.def_448 (* 5.0 b.delta__AT2)))
(let ((.def_449 (* b.delta__AT2 .def_448)))
(let ((.def_450 (* (- 1.0) .def_449)))
(let ((.def_453 (+ .def_446 .def_450)))
(let ((.def_443 (* b.x__AT2 b.x__AT2)))
(let ((.def_454 (+ .def_443 .def_453)))
(let ((.def_455 (+ b.y__AT2 .def_454)))
(let ((.def_456 (<= 0.0 .def_455)))
(let ((.def_444 (+ b.y__AT2 .def_443)))
(let ((.def_445 (<= 0.0 .def_444)))
(let ((.def_457 (and .def_445 .def_456)))
(let ((.def_442 (not .def_441)))
(let ((.def_458 (or .def_442 .def_457)))
(let ((.def_459 (or .def_439 .def_458)))
(let ((.def_156 (not b.counter.0__AT1)))
(let ((.def_433 (or b.counter.1__AT1 .def_156)))
(let ((.def_151 (not b.counter.2__AT1)))
(let ((.def_434 (or .def_151 .def_433)))
(let ((.def_435 (or b.counter.3__AT1 .def_434)))
(let ((.def_429 (<= .def_428 b.y__AT2)))
(let ((.def_430 (and .def_59 .def_429)))
(let ((.def_425 (or .def_422 .def_424)))
(let ((.def_415 (or .def_333 .def_343)))
(let ((.def_419 (or b.counter.3__AT2 .def_415)))
(let ((.def_416 (or b.counter.2__AT2 .def_415)))
(let ((.def_414 (or .def_338 .def_343)))
(let ((.def_417 (and .def_414 .def_416)))
(let ((.def_418 (or .def_352 .def_417)))
(let ((.def_420 (and .def_418 .def_419)))
(let ((.def_426 (and .def_420 .def_425)))
(let ((.def_431 (and .def_426 .def_430)))
(let ((.def_258 (<= 0.0 b.delta__AT1)))
(let ((.def_241 (not b.EVENT.0__AT1)))
(let ((.def_239 (not b.EVENT.1__AT1)))
(let ((.def_255 (and .def_239 .def_241)))
(let ((.def_256 (not .def_255)))
(let ((.def_410 (or .def_256 .def_258)))
(let ((.def_411 (or b.EVENT.1__AT1 .def_410)))
(let ((.def_317 (= b.bool_atom__AT1 b.bool_atom__AT2)))
(let ((.def_313 (= b.counter.0__AT1 b.counter.0__AT2)))
(let ((.def_310 (= b.counter.1__AT1 b.counter.1__AT2)))
(let ((.def_307 (= b.counter.2__AT1 b.counter.2__AT2)))
(let ((.def_305 (= b.counter.3__AT1 b.counter.3__AT2)))
(let ((.def_308 (and .def_305 .def_307)))
(let ((.def_311 (and .def_308 .def_310)))
(let ((.def_314 (and .def_311 .def_313)))
(let ((.def_406 (and .def_314 .def_317)))
(let ((.def_407 (or .def_256 .def_406)))
(let ((.def_408 (or b.EVENT.1__AT1 .def_407)))
(let ((.def_395 (* .def_197 b.delta__AT1)))
(let ((.def_396 (* (- 1.0) b.speed_y__AT2)))
(let ((.def_399 (+ .def_396 .def_395)))
(let ((.def_400 (+ b.speed_y__AT1 .def_399)))
(let ((.def_401 (= .def_400 0.0 )))
(let ((.def_384 (* b.delta__AT1 b.delta__AT1)))
(let ((.def_385 (* .def_200 .def_384)))
(let ((.def_386 (* (- 1.0) b.y__AT2)))
(let ((.def_390 (+ .def_386 .def_385)))
(let ((.def_263 (* b.speed_y__AT1 b.delta__AT1)))
(let ((.def_391 (+ .def_263 .def_390)))
(let ((.def_392 (+ b.y__AT1 .def_391)))
(let ((.def_393 (= .def_392 0.0 )))
(let ((.def_296 (= b.x__AT1 b.x__AT2)))
(let ((.def_394 (and .def_296 .def_393)))
(let ((.def_402 (and .def_394 .def_401)))
(let ((.def_403 (or .def_256 .def_402)))
(let ((.def_299 (= b.y__AT1 b.y__AT2)))
(let ((.def_379 (and .def_296 .def_299)))
(let ((.def_302 (= b.speed_y__AT1 b.speed_y__AT2)))
(let ((.def_380 (and .def_302 .def_379)))
(let ((.def_376 (= b.delta__AT1 0.0 )))
(let ((.def_377 (and .def_255 .def_376)))
(let ((.def_378 (not .def_377)))
(let ((.def_381 (or .def_378 .def_380)))
(let ((.def_382 (or b.EVENT.1__AT1 .def_381)))
(let ((.def_369 (and .def_302 .def_314)))
(let ((.def_370 (or b.bool_atom__AT1 .def_369)))
(let ((.def_344 (or b.counter.0__AT1 .def_343)))
(let ((.def_342 (or .def_156 b.counter.0__AT2)))
(let ((.def_345 (and .def_342 .def_344)))
(let ((.def_346 (and .def_333 .def_345)))
(let ((.def_347 (or b.counter.1__AT1 .def_346)))
(let ((.def_146 (not b.counter.1__AT1)))
(let ((.def_341 (or .def_146 b.counter.1__AT2)))
(let ((.def_348 (and .def_341 .def_347)))
(let ((.def_360 (and .def_338 .def_348)))
(let ((.def_361 (or b.counter.2__AT1 .def_360)))
(let ((.def_355 (and .def_156 .def_333)))
(let ((.def_356 (or b.counter.1__AT1 .def_355)))
(let ((.def_357 (and .def_341 .def_356)))
(let ((.def_358 (and b.counter.2__AT2 .def_357)))
(let ((.def_359 (or .def_151 .def_358)))
(let ((.def_362 (and .def_359 .def_361)))
(let ((.def_363 (and b.counter.3__AT2 .def_362)))
(let ((.def_364 (or b.counter.3__AT1 .def_363)))
(let ((.def_349 (and b.counter.2__AT2 .def_348)))
(let ((.def_350 (or b.counter.2__AT1 .def_349)))
(let ((.def_336 (or b.counter.1__AT1 b.counter.1__AT2)))
(let ((.def_334 (and b.counter.0__AT2 .def_333)))
(let ((.def_335 (or .def_146 .def_334)))
(let ((.def_337 (and .def_335 .def_336)))
(let ((.def_339 (and .def_337 .def_338)))
(let ((.def_340 (or .def_151 .def_339)))
(let ((.def_351 (and .def_340 .def_350)))
(let ((.def_353 (and .def_351 .def_352)))
(let ((.def_165 (not b.counter.3__AT1)))
(let ((.def_354 (or .def_165 .def_353)))
(let ((.def_365 (and .def_354 .def_364)))
(let ((.def_142 (* b.speed_y__AT1 b.speed_y__AT1)))
(let ((.def_331 (= .def_142 .def_330)))
(let ((.def_328 (+ b.speed_y__AT1 b.speed_y__AT2)))
(let ((.def_329 (= .def_328 0.0 )))
(let ((.def_332 (and .def_329 .def_331)))
(let ((.def_366 (and .def_332 .def_365)))
(let ((.def_327 (not b.bool_atom__AT1)))
(let ((.def_367 (or .def_327 .def_366)))
(let ((.def_323 (<= 0.0 b.speed_y__AT1)))
(let ((.def_324 (not .def_323)))
(let ((.def_244 (* (- 1.0) b.x__AT1)))
(let ((.def_245 (* b.x__AT1 .def_244)))
(let ((.def_322 (= b.y__AT1 .def_245)))
(let ((.def_325 (and .def_322 .def_324)))
(let ((.def_326 (= b.bool_atom__AT1 .def_325)))
(let ((.def_368 (and .def_326 .def_367)))
(let ((.def_371 (and .def_368 .def_370)))
(let ((.def_372 (and .def_296 .def_371)))
(let ((.def_373 (and .def_299 .def_372)))
(let ((.def_374 (or .def_255 .def_373)))
(let ((.def_375 (or b.EVENT.1__AT1 .def_374)))
(let ((.def_383 (and .def_375 .def_382)))
(let ((.def_404 (and .def_383 .def_403)))
(let ((.def_283 (= b.time__AT1 b.time__AT2)))
(let ((.def_297 (and .def_283 .def_296)))
(let ((.def_300 (and .def_297 .def_299)))
(let ((.def_303 (and .def_300 .def_302)))
(let ((.def_315 (and .def_303 .def_314)))
(let ((.def_318 (and .def_315 .def_317)))
(let ((.def_319 (or .def_239 .def_318)))
(let ((.def_286 (* (- 1.0) b.time__AT2)))
(let ((.def_289 (+ b.delta__AT1 .def_286)))
(let ((.def_290 (+ b.time__AT1 .def_289)))
(let ((.def_291 (= .def_290 0.0 )))
(let ((.def_292 (or .def_256 .def_291)))
(let ((.def_293 (or b.EVENT.1__AT1 .def_292)))
(let ((.def_284 (or .def_255 .def_283)))
(let ((.def_285 (or b.EVENT.1__AT1 .def_284)))
(let ((.def_294 (and .def_285 .def_293)))
(let ((.def_320 (and .def_294 .def_319)))
(let ((.def_280 (= .def_256 b.event_is_timed__AT2)))
(let ((.def_278 (= b.event_is_timed__AT1 .def_255)))
(let ((.def_281 (and .def_278 .def_280)))
(let ((.def_321 (and .def_281 .def_320)))
(let ((.def_405 (and .def_321 .def_404)))
(let ((.def_409 (and .def_405 .def_408)))
(let ((.def_412 (and .def_409 .def_411)))
(let ((.def_413 (and .def_239 .def_412)))
(let ((.def_432 (and .def_413 .def_431)))
(let ((.def_436 (and .def_432 .def_435)))
(let ((.def_265 (* 5.0 b.delta__AT1)))
(let ((.def_266 (* b.delta__AT1 .def_265)))
(let ((.def_267 (* (- 1.0) .def_266)))
(let ((.def_270 (+ .def_263 .def_267)))
(let ((.def_260 (* b.x__AT1 b.x__AT1)))
(let ((.def_271 (+ .def_260 .def_270)))
(let ((.def_272 (+ b.y__AT1 .def_271)))
(let ((.def_273 (<= 0.0 .def_272)))
(let ((.def_261 (+ b.y__AT1 .def_260)))
(let ((.def_262 (<= 0.0 .def_261)))
(let ((.def_274 (and .def_262 .def_273)))
(let ((.def_259 (not .def_258)))
(let ((.def_275 (or .def_259 .def_274)))
(let ((.def_276 (or .def_256 .def_275)))
(let ((.def_28 (not b.counter.0__AT0)))
(let ((.def_250 (or b.counter.1__AT0 .def_28)))
(let ((.def_31 (not b.counter.2__AT0)))
(let ((.def_251 (or .def_31 .def_250)))
(let ((.def_252 (or b.counter.3__AT0 .def_251)))
(let ((.def_246 (<= .def_245 b.y__AT1)))
(let ((.def_247 (and .def_59 .def_246)))
(let ((.def_242 (or .def_239 .def_241)))
(let ((.def_232 (or .def_146 .def_156)))
(let ((.def_236 (or b.counter.3__AT1 .def_232)))
(let ((.def_233 (or b.counter.2__AT1 .def_232)))
(let ((.def_231 (or .def_151 .def_156)))
(let ((.def_234 (and .def_231 .def_233)))
(let ((.def_235 (or .def_165 .def_234)))
(let ((.def_237 (and .def_235 .def_236)))
(let ((.def_243 (and .def_237 .def_242)))
(let ((.def_248 (and .def_243 .def_247)))
(let ((.def_67 (<= 0.0 b.delta__AT0)))
(let ((.def_47 (not b.EVENT.0__AT0)))
(let ((.def_45 (not b.EVENT.1__AT0)))
(let ((.def_64 (and .def_45 .def_47)))
(let ((.def_65 (not .def_64)))
(let ((.def_227 (or .def_65 .def_67)))
(let ((.def_228 (or b.EVENT.1__AT0 .def_227)))
(let ((.def_129 (= b.bool_atom__AT0 b.bool_atom__AT1)))
(let ((.def_124 (= b.counter.0__AT0 b.counter.0__AT1)))
(let ((.def_121 (= b.counter.1__AT0 b.counter.1__AT1)))
(let ((.def_118 (= b.counter.2__AT0 b.counter.2__AT1)))
(let ((.def_116 (= b.counter.3__AT0 b.counter.3__AT1)))
(let ((.def_119 (and .def_116 .def_118)))
(let ((.def_122 (and .def_119 .def_121)))
(let ((.def_125 (and .def_122 .def_124)))
(let ((.def_223 (and .def_125 .def_129)))
(let ((.def_224 (or .def_65 .def_223)))
(let ((.def_225 (or b.EVENT.1__AT0 .def_224)))
(let ((.def_212 (* b.delta__AT0 .def_197)))
(let ((.def_213 (* (- 1.0) b.speed_y__AT1)))
(let ((.def_216 (+ .def_213 .def_212)))
(let ((.def_217 (+ b.speed_y__AT0 .def_216)))
(let ((.def_218 (= .def_217 0.0 )))
(let ((.def_201 (* b.delta__AT0 b.delta__AT0)))
(let ((.def_202 (* .def_200 .def_201)))
(let ((.def_204 (* (- 1.0) b.y__AT1)))
(let ((.def_207 (+ .def_204 .def_202)))
(let ((.def_73 (* b.delta__AT0 b.speed_y__AT0)))
(let ((.def_208 (+ .def_73 .def_207)))
(let ((.def_209 (+ b.y__AT0 .def_208)))
(let ((.def_210 (= .def_209 0.0 )))
(let ((.def_107 (= b.x__AT0 b.x__AT1)))
(let ((.def_211 (and .def_107 .def_210)))
(let ((.def_219 (and .def_211 .def_218)))
(let ((.def_220 (or .def_65 .def_219)))
(let ((.def_110 (= b.y__AT0 b.y__AT1)))
(let ((.def_192 (and .def_107 .def_110)))
(let ((.def_113 (= b.speed_y__AT0 b.speed_y__AT1)))
(let ((.def_193 (and .def_113 .def_192)))
(let ((.def_189 (= b.delta__AT0 0.0 )))
(let ((.def_190 (and .def_64 .def_189)))
(let ((.def_191 (not .def_190)))
(let ((.def_194 (or .def_191 .def_193)))
(let ((.def_195 (or b.EVENT.1__AT0 .def_194)))
(let ((.def_182 (and .def_113 .def_125)))
(let ((.def_183 (or b.bool_atom__AT0 .def_182)))
(let ((.def_157 (or b.counter.0__AT0 .def_156)))
(let ((.def_155 (or .def_28 b.counter.0__AT1)))
(let ((.def_158 (and .def_155 .def_157)))
(let ((.def_159 (and .def_146 .def_158)))
(let ((.def_160 (or b.counter.1__AT0 .def_159)))
(let ((.def_26 (not b.counter.1__AT0)))
(let ((.def_154 (or .def_26 b.counter.1__AT1)))
(let ((.def_161 (and .def_154 .def_160)))
(let ((.def_173 (and .def_151 .def_161)))
(let ((.def_174 (or b.counter.2__AT0 .def_173)))
(let ((.def_168 (and .def_28 .def_146)))
(let ((.def_169 (or b.counter.1__AT0 .def_168)))
(let ((.def_170 (and .def_154 .def_169)))
(let ((.def_171 (and b.counter.2__AT1 .def_170)))
(let ((.def_172 (or .def_31 .def_171)))
(let ((.def_175 (and .def_172 .def_174)))
(let ((.def_176 (and b.counter.3__AT1 .def_175)))
(let ((.def_177 (or b.counter.3__AT0 .def_176)))
(let ((.def_162 (and b.counter.2__AT1 .def_161)))
(let ((.def_163 (or b.counter.2__AT0 .def_162)))
(let ((.def_149 (or b.counter.1__AT0 b.counter.1__AT1)))
(let ((.def_147 (and b.counter.0__AT1 .def_146)))
(let ((.def_148 (or .def_26 .def_147)))
(let ((.def_150 (and .def_148 .def_149)))
(let ((.def_152 (and .def_150 .def_151)))
(let ((.def_153 (or .def_31 .def_152)))
(let ((.def_164 (and .def_153 .def_163)))
(let ((.def_166 (and .def_164 .def_165)))
(let ((.def_34 (not b.counter.3__AT0)))
(let ((.def_167 (or .def_34 .def_166)))
(let ((.def_178 (and .def_167 .def_177)))
(let ((.def_143 (* b.speed_y__AT0 b.speed_y__AT0)))
(let ((.def_144 (= .def_142 .def_143)))
(let ((.def_140 (+ b.speed_y__AT0 b.speed_y__AT1)))
(let ((.def_141 (= .def_140 0.0 )))
(let ((.def_145 (and .def_141 .def_144)))
(let ((.def_179 (and .def_145 .def_178)))
(let ((.def_139 (not b.bool_atom__AT0)))
(let ((.def_180 (or .def_139 .def_179)))
(let ((.def_135 (<= 0.0 b.speed_y__AT0)))
(let ((.def_136 (not .def_135)))
(let ((.def_52 (* (- 1.0) b.x__AT0)))
(let ((.def_53 (* b.x__AT0 .def_52)))
(let ((.def_134 (= b.y__AT0 .def_53)))
(let ((.def_137 (and .def_134 .def_136)))
(let ((.def_138 (= b.bool_atom__AT0 .def_137)))
(let ((.def_181 (and .def_138 .def_180)))
(let ((.def_184 (and .def_181 .def_183)))
(let ((.def_185 (and .def_107 .def_184)))
(let ((.def_186 (and .def_110 .def_185)))
(let ((.def_187 (or .def_64 .def_186)))
(let ((.def_188 (or b.EVENT.1__AT0 .def_187)))
(let ((.def_196 (and .def_188 .def_195)))
(let ((.def_221 (and .def_196 .def_220)))
(let ((.def_94 (= b.time__AT0 b.time__AT1)))
(let ((.def_108 (and .def_94 .def_107)))
(let ((.def_111 (and .def_108 .def_110)))
(let ((.def_114 (and .def_111 .def_113)))
(let ((.def_126 (and .def_114 .def_125)))
(let ((.def_130 (and .def_126 .def_129)))
(let ((.def_131 (or .def_45 .def_130)))
(let ((.def_97 (* (- 1.0) b.time__AT1)))
(let ((.def_100 (+ b.delta__AT0 .def_97)))
(let ((.def_101 (+ b.time__AT0 .def_100)))
(let ((.def_102 (= .def_101 0.0 )))
(let ((.def_103 (or .def_65 .def_102)))
(let ((.def_104 (or b.EVENT.1__AT0 .def_103)))
(let ((.def_95 (or .def_64 .def_94)))
(let ((.def_96 (or b.EVENT.1__AT0 .def_95)))
(let ((.def_105 (and .def_96 .def_104)))
(let ((.def_132 (and .def_105 .def_131)))
(let ((.def_91 (= .def_65 b.event_is_timed__AT1)))
(let ((.def_89 (= b.event_is_timed__AT0 .def_64)))
(let ((.def_92 (and .def_89 .def_91)))
(let ((.def_133 (and .def_92 .def_132)))
(let ((.def_222 (and .def_133 .def_221)))
(let ((.def_226 (and .def_222 .def_225)))
(let ((.def_229 (and .def_226 .def_228)))
(let ((.def_230 (and .def_45 .def_229)))
(let ((.def_249 (and .def_230 .def_248)))
(let ((.def_253 (and .def_249 .def_252)))
(let ((.def_76 (* 5.0 b.delta__AT0)))
(let ((.def_77 (* b.delta__AT0 .def_76)))
(let ((.def_78 (* (- 1.0) .def_77)))
(let ((.def_81 (+ .def_73 .def_78)))
(let ((.def_69 (* b.x__AT0 b.x__AT0)))
(let ((.def_82 (+ .def_69 .def_81)))
(let ((.def_83 (+ b.y__AT0 .def_82)))
(let ((.def_84 (<= 0.0 .def_83)))
(let ((.def_70 (+ b.y__AT0 .def_69)))
(let ((.def_71 (<= 0.0 .def_70)))
(let ((.def_85 (and .def_71 .def_84)))
(let ((.def_68 (not .def_67)))
(let ((.def_86 (or .def_68 .def_85)))
(let ((.def_87 (or .def_65 .def_86)))
(let ((.def_54 (<= .def_53 b.y__AT0)))
(let ((.def_60 (and .def_54 .def_59)))
(let ((.def_48 (or .def_45 .def_47)))
(let ((.def_38 (or .def_26 .def_28)))
(let ((.def_42 (or b.counter.3__AT0 .def_38)))
(let ((.def_39 (or b.counter.2__AT0 .def_38)))
(let ((.def_37 (or .def_28 .def_31)))
(let ((.def_40 (and .def_37 .def_39)))
(let ((.def_41 (or .def_34 .def_40)))
(let ((.def_43 (and .def_41 .def_42)))
(let ((.def_49 (and .def_43 .def_48)))
(let ((.def_61 (and .def_49 .def_60)))
(let ((.def_29 (and .def_26 .def_28)))
(let ((.def_32 (and .def_29 .def_31)))
(let ((.def_35 (and .def_32 .def_34)))
(let ((.def_23 (= b.y__AT0 10.0 )))
(let ((.def_19 (= b.x__AT0 0.0 )))
(let ((.def_15 (= b.time__AT0 0.0 )))
(let ((.def_17 (and .def_15 b.event_is_timed__AT0)))
(let ((.def_20 (and .def_17 .def_19)))
(let ((.def_24 (and .def_20 .def_23)))
(let ((.def_36 (and .def_24 .def_35)))
(let ((.def_62 (and .def_36 .def_61)))
(let ((.def_6 (or .def_4 b.counter.1__AT4)))
(let ((.def_9 (or .def_6 .def_8)))
(let ((.def_11 (or .def_9 b.counter.3__AT4)))
(let ((.def_12 (not .def_11)))
(let ((.def_63 (and .def_12 .def_62)))
(let ((.def_88 (and .def_63 .def_87)))
(let ((.def_254 (and .def_88 .def_253)))
(let ((.def_277 (and .def_254 .def_276)))
(let ((.def_437 (and .def_277 .def_436)))
(let ((.def_460 (and .def_437 .def_459)))
(let ((.def_620 (and .def_460 .def_619)))
(let ((.def_643 (and .def_620 .def_642)))
(let ((.def_797 (and .def_643 .def_796)))
(let ((.def_820 (and .def_797 .def_819)))
.def_820))))))))))))))))))))))))))))))))))))))))))))))))))))))))))))))))))))))))))))))))))))))))))))))))))))))))))))))))))))))))))))))))))))))))))))))))))))))))))))))))))))))))))))))))))))))))))))))))))))))))))))))))))))))))))))))))))))))))))))))))))))))))))))))))))))))))))))))))))))))))))))))))))))))))))))))))))))))))))))))))))))))))))))))))))))))))))))))))))))))))))))))))))))))))))))))))))))))))))))))))))))))))))))))))))))))))))))))))))))))))))))))))))))))))))))))))))))))))))))))))))))))))))))))))))))))))))))))))))))))))))))))))))))))))))))))))))))))))))))))))))))))))))))))))))))))))))))))))))))))))))))))))))))))))))))))))))))))))))))))))))))))))))))))))))))))))))))))))))))))))))))))))))))))))))))))
(check-sat)
(exit)
